n_res = 4;
rc = [ 21, 24, 25, 27 ];
n_tasks = 30;
d = [ 9, 3, 9, 2, 7, 10, 7, 3, 7, 5, 7, 10, 9, 2, 1, 7, 5, 3, 7, 4, 3, 2, 10, 7, 10, 5, 5, 5, 3, 10 ];
rr = [| 21, 21, 21, 21, 21, 21, 21, 21, 21, 21, 21, 21, 21, 21, 21, 21, 21, 21, 21, 21, 21, 21, 21, 21, 21, 21, 21, 21, 21, 21
      | 24, 24, 24, 24, 24, 24, 24, 24, 24, 24, 24, 24, 24, 24, 24, 24, 24, 24, 24, 24, 24, 24, 24, 24, 24, 24, 24, 24, 24, 24
      | 25, 25, 25, 25, 25, 25, 25, 25, 25, 25, 25, 25, 25, 25, 25, 25, 25, 25, 25, 25, 25, 25, 25, 25, 25, 25, 25, 25, 25, 25
      | 27, 27, 27, 27, 27, 27, 27, 27, 27, 27, 27, 27, 27, 27, 27, 27, 27, 27, 27, 27, 27, 27, 27, 27, 27, 27, 27, 27, 27, 27|];
suc = [ { 12 },
       { 4, 5 },
       { 7, 11 },
       { 6, 12, 20 },
       { 17, 19 },
       { 8, 14, 16 },
       { 9, 10, 23 },
       { 9, 10, 18 },
       { 17 },
       { 24, 29 },
       { 12, 13, 26 },
       { 18, 29, 30 },
       { 15 },
       { 18, 23 },
       { 20, 25 },
       { 17, 19 },
       { 24, 25 },
       { 28 },
       { 21, 24 },
       { 27, 28 },
       { 22 },
       { 23 },
       { 26 },
       { 26, 27, 28 },
       { 27, 29 },
       { 30 },
       { 30 },
       {  },
       {  },
       {  } ];
